
  32    4
  10   10   10   10

   0   0   0   0   0   3 2 8 23 
   7   1   1   1   0   1 3 
  10   3   2   0   1   1 4 
   4   8   5   4   0   2 12 5 
   2   4   3   0   4   1 6 
   8   2   8   3   0   1 7 
   5   3   5   3   0   2 25 9 
   4   2   0   3   6   2 25 10 
   1   5   0   4   5   1 10 
   2   3   4   3   0   1 11 
   7   0   4   3   5   2 22 13 
   7   0   4   4   6   2 22 13 
   9   3  10   7   0   1 14 
   2   6   2   2   0   1 15 
   3   5   0   3   8   1 16 
   2   5   2   0   5   1 17 
   1   3   0   4   1   1 18 
   8   5   0   2   3   1 19 
   6   0   3   6   5   1 20 
   5   5   6   6   0   1 21 
   3   5   4   2   0   2 31 24 
   4   4   0   4   3   2 31 24 
   8   2   0   5   3   2 31 26 
   7   2   0   3   3   1 26 
   1   3   5   0   4   1 26 
   5   5   1   0   4   1 27 
   1   0   4   5   1   1 28 
   1   6   4   6   0   1 29 
   5   4   0   5   4   1 30 
  10   4   0   8   3   1 32
   5   6   3   0   6   1 32
   0   0   0   0   0   0 
